20J6M/DAT/20J6MUNL-12.dat
20 6
32.5428 32.5428
7.0385 7.0385
16.086 16.086
26.2941 26.2941
17.5752 17.5752
8.1258 8.1258
41.7 41.7
10.2672 10.2672
27.9411 27.9411
36.7787 36.7787
26.3752 26.3752
7.9332 7.9332
28.168 28.168
47.6844 47.6844
19.1893 19.1893
34.9577 34.9577
14.1327 14.1327
2.2065 2.2065
36.7176 36.7176
0.14 0.14
441.854