20J6M/SOL/20J6MUNL-12.sol
solution status: optimal solution found
objective value:                     73.6423333333333
x#1#1                                               1 	(obj:0)
x#2#6                                               1 	(obj:0)
x#3#1                                               1 	(obj:0)
x#4#5                                               1 	(obj:0)
x#5#2                                               1 	(obj:0)
x#6#1                                               1 	(obj:0)
x#7#3                               0.152043165467625 	(obj:0)
x#7#4                               0.847956834532375 	(obj:0)
x#8#3                                               1 	(obj:0)
x#9#5                               0.414127098312761 	(obj:0)
x#9#6                               0.585872901687239 	(obj:0)
x#10#3                                              1 	(obj:0)
x#11#5                                              1 	(obj:0)
x#12#6                                              1 	(obj:0)
x#13#6                                              1 	(obj:0)
x#14#4                              0.802831394194608 	(obj:0)
x#14#5                              0.197168605805392 	(obj:0)
x#15#3                                              1 	(obj:0)
x#16#1                              0.479085675926429 	(obj:0)
x#16#2                              0.520914324073571 	(obj:0)
x#17#6                                              1 	(obj:0)
x#18#2                                              1 	(obj:0)
x#19#2                              0.970942182132455 	(obj:0)
x#19#3                             0.0290578178675447 	(obj:0)
x#20#1                                              1 	(obj:0)
z                                    73.6423333333333 	(obj:1)
